
#(C) 2021 by FIZ Karlsruhe - Leibniz Institute for Information Infrastructure.  All rights reserved.
data_64939-ICSD
_database_code_ICSD 64939
_audit_creation_date 1998-06-26
_audit_update_record 2007-08-01
_chemical_name_common 'Diammonium oxalate hydrate'
_chemical_formula_structural '(N H4)2 (C2 O4) (H2 O)'
_chemical_formula_sum 'C2 H10 N2 O5'
_chemical_name_structure_type (NH4)2(CO2)2H2O
_exptl_crystal_density_diffrn 1.5
_citation_title

;
Isotope and bonding effects in ammonium oxalate monohydrate, determined by the
combined use of neutron and X-ray diffraction analyses
;
loop_
_citation_id
_citation_journal_full
_citation_year
_citation_journal_volume
_citation_page_first
_citation_page_last
_citation_journal_id_ASTM
primary

;
Acta Crystallographica, Section B: Structural Crystallography and Crystal
Chemistry
; 1972 28 3340 3351 ACBCAR
loop_
_citation_author_citation_id
_citation_author_name
primary 'Taylor, J.C.'
primary 'Sabine, T.M.'
_cell_length_a 8.025(2)
_cell_length_b 10.300(2)
_cell_length_c 3.799(1)
_cell_angle_alpha 90.
_cell_angle_beta 90.
_cell_angle_gamma 90.
_cell_volume 314.02
_cell_formula_units_Z 2
_space_group_name_H-M_alt 'P 21 21 2'
_space_group_IT_number 18
loop_
_space_group_symop_id
_space_group_symop_operation_xyz
1 '-x+1/2, y+1/2, -z'
2 'x+1/2, -y+1/2, -z'
3 '-x, -y, z'
4 'x, y, z'
loop_
_atom_type_symbol
_atom_type_oxidation_number
C3+ 3
O2- -2
N3- -3
O2- -2
H1+ 1
loop_
_atom_site_label
_atom_site_type_symbol
_atom_site_symmetry_multiplicity
_atom_site_Wyckoff_symbol
_atom_site_fract_x
_atom_site_fract_y
_atom_site_fract_z
_atom_site_B_iso_or_equiv
_atom_site_occupancy
C1 C3+ 4 c 0.0921(1) 0.0232(1) 0.0701(3) . 1.
O1 O2- 4 c 0.2018(1) -.0587(1) 0.1423(4) . 1.
O2 O2- 4 c 0.1176(2) 0.1410(2) 0.0012(4) . 1.
N1 N3- 4 c 0.3867(1) 0.2266(1) 0.4251(2) . 1.
O3 O2- 2 b 0 0.5 0.1855(5) . 1.
loop_
_atom_site_aniso_label
_atom_site_aniso_type_symbol
_atom_site_aniso_beta_11
_atom_site_aniso_beta_22
_atom_site_aniso_beta_33
_atom_site_aniso_beta_12
_atom_site_aniso_beta_13
_atom_site_aniso_beta_23
C1 C3+ 0.0049(1) 0.0035(1) 0.0310(5) -.0005(1) -.0006(2) 0.0008(2)
O1 O2- 0.0058(2) 0.0051(2) 0.0593(9) 0.0004(1) -.0002(3) 0.0046(3)
O2 O2- 0.0065(2) 0.0043(1) 0.0579(10) -.0013(1) -.0046(3) 0.0034(3)
N1 N3- 0.0080(1) 0.0048(1) 0.0344(4) -.0012(1) 0.0000(2) -.0005(1)
O3 O2- 0.0064(2) 0.0062(2) 0.0447(10) 0.0001(2) 0 0
#End of TTdata_64939-ICSD