
#(C) 2021 by FIZ Karlsruhe - Leibniz Institute for Information Infrastructure.  All rights reserved.
data_64937-ICSD
_database_code_ICSD 64937
_audit_creation_date 1998-06-26
_audit_update_record 2007-08-01
_chemical_name_common 'Bis(tetradeuterioammonium) oxalate hydrate'
_chemical_formula_structural '(N D4)2 (C2 O4) (D2 O)'
_chemical_formula_sum 'C2 D10 N2 O5'
_chemical_name_structure_type (NH4)2(CO2)2H2O
_exptl_crystal_density_diffrn 1.6
_citation_title

;
Isotope and bonding effects in ammonium oxalate monohydrate, determined by the
combined use of neutron and X-ray diffraction analyses
;
loop_
_citation_id
_citation_journal_full
_citation_year
_citation_journal_volume
_citation_page_first
_citation_page_last
_citation_journal_id_ASTM
primary

;
Acta Crystallographica, Section B: Structural Crystallography and Crystal
Chemistry
; 1972 28 3340 3351 ACBCAR
loop_
_citation_author_citation_id
_citation_author_name
primary 'Taylor, J.C.'
primary 'Sabine, T.M.'
_cell_length_a 8.027(2)
_cell_length_b 10.298(2)
_cell_length_c 3.816(1)
_cell_angle_alpha 90.
_cell_angle_beta 90.
_cell_angle_gamma 90.
_cell_volume 315.44
_cell_formula_units_Z 2
_space_group_name_H-M_alt 'P 21 21 2'
_space_group_IT_number 18
loop_
_space_group_symop_id
_space_group_symop_operation_xyz
1 '-x+1/2, y+1/2, -z'
2 'x+1/2, -y+1/2, -z'
3 '-x, -y, z'
4 'x, y, z'
loop_
_atom_type_symbol
_atom_type_oxidation_number
C3+ 3
O2- -2
N3- -3
O2- -2
D1+ 1
loop_
_atom_site_label
_atom_site_type_symbol
_atom_site_symmetry_multiplicity
_atom_site_Wyckoff_symbol
_atom_site_fract_x
_atom_site_fract_y
_atom_site_fract_z
_atom_site_B_iso_or_equiv
_atom_site_occupancy
C1 C3+ 4 c 0.0922(1) 0.0237(1) 0.0703(3) . 1.
O1 O2- 4 c 0.2017(2) -.0586(2) 0.1410(5) . 1.
O2 O2- 4 c 0.1176(2) 0.1406(1) 0.0022(5) . 1.
N1 N3- 4 c 0.3868(1) 0.2266(1) 0.4251(2) . 1.
O3 O2- 2 b 0 0.5 0.1835(6) . 1.
D1 D1+ 4 c 0.4335(2) 0.1475(1) 0.5587(4) . 1.
D2 D1+ 4 c 0.4750(2) 0.2678(1) 0.2638(4) . 1.
D3 D1+ 4 c 0.3501(2) 0.2970(2) 0.6021(4) . 1.
D4 D1+ 4 c 0.2874(2) 0.1970(2) 0.2723(4) . 1.
D5 D1+ 4 c 0.0957(2) 0.4811(1) 0.0382(4) . 1.
loop_
_atom_site_aniso_label
_atom_site_aniso_type_symbol
_atom_site_aniso_beta_11
_atom_site_aniso_beta_22
_atom_site_aniso_beta_33
_atom_site_aniso_beta_12
_atom_site_aniso_beta_13
_atom_site_aniso_beta_23
C1 C3+ 0.0043(2) 0.0031(1) 0.0261(7) -.0005(1) -.0011(3) 0.0011(2)
O1 O2- 0.0048(2) 0.0044(1) 0.0600(12) 0.0003(1) -.0004(4) 0.0055(3)
O2 O2- 0.0063(2) 0.0033(1) 0.0568(12) -.0013(1) -.0044(4) 0.0040(4)
N1 N3- 0.0077(1) 0.0043(1) 0.0317(6) -.0009(1) -.0001(2) -.0006(2)
O3 O2- 0.0061(3) 0.0047(2) 0.0450(13) -.0005(2) 0 0
D1 D1+ 0.0126(2) 0.0048(1) 0.0451(10) 0.0004(1) -.0021(4) 0.0030(4)
D2 D1+ 0.0086(2) 0.0069(2) 0.0442(9) -.0018(1) 0.0041(4) 0.0003(3)
D3 D1+ 0.0121(2) 0.0054(1) 0.0410(9) 0.0000(1) 0.0033(4) -.0035(4)
D4 D1+ 0.0084(2) 0.0066(2) 0.047(1) -.0022(1) -.0032(4) -.0008(4)
D5 D1+ 0.0065(2) 0.0057(2) 0.0523(10) -.0001(1) 0.0035(4) -.0005(4)
#End of TTdata_64937-ICSD